(set-info :source |printed by MathSAT|)
(declare-fun |!{a1.1}| () (Array Int (Array Int Int)))
(declare-fun |!{a1.1}.next| () (Array Int (Array Int Int)))
(declare-fun |!{M}| () Int)
(declare-fun |!{M}.next| () Int)
(declare-fun |!{N}| () Int)
(declare-fun |!{N}.next| () Int)
(declare-fun |!{c}| () Int)
(declare-fun |!{c}.next| () Int)
(declare-fun |!{i}| () Int)
(declare-fun |!{i}.next| () Int)
(declare-fun |!{j}| () Int)
(declare-fun |!{j}.next| () Int)
(declare-fun |!pc[0]| () Bool)
(declare-fun |!pc[0].next| () Bool)
(declare-fun |!pc[1]| () Bool)
(declare-fun |!pc[1].next| () Bool)
(declare-fun |!pc[2]| () Bool)
(declare-fun |!pc[2].next| () Bool)
(declare-fun |%{j}#1| () Int)
(declare-fun |%{a1.1}#1| () (Array Int (Array Int Int)))
(declare-fun nd_int<0> () Int)
(declare-fun nd<0> () Int)
(define-fun .def_39 () Bool (! |!pc[2]| :next |!pc[2].next|))
(define-fun .def_44 () Bool (not .def_39))
(define-fun .def_37 () Bool (! |!pc[1]| :next |!pc[1].next|))
(define-fun .def_42 () Bool (not .def_37))
(define-fun .def_35 () Bool (! |!pc[0]| :next |!pc[0].next|))
(define-fun .def_41 () Bool (not .def_35))
(define-fun .def_43 () Bool (and .def_41 .def_42))
(define-fun .def_45 () Bool (! (and .def_43 .def_44) :init true))
(define-fun .def_97 () Bool (and .def_37 .def_41))
(define-fun .def_168 () Bool (and .def_39 .def_97))
(define-fun .def_72 () Bool (not |!pc[2].next|))
(define-fun .def_70 () Bool (not |!pc[1].next|))
(define-fun .def_71 () Bool (and |!pc[0].next| .def_70))
(define-fun .def_73 () Bool (and .def_71 .def_72))
(define-fun .def_171 () Bool (and .def_73 .def_168))
(define-fun .def_131 () Int (* (- 1) |!{i}.next|))
(define-fun .def_16 () Int (! |!{i}| :next |!{i}.next|))
(define-fun .def_132 () Int (+ .def_16 .def_131))
(define-fun .def_133 () Bool (= .def_132 (- 1)))
(define-fun .def_14 () Int (! |!{c}| :next |!{c}.next|))
(define-fun .def_83 () Bool (= .def_14 |!{c}.next|))
(define-fun .def_12 () Int (! |!{N}| :next |!{N}.next|))
(define-fun .def_81 () Bool (= .def_12 |!{N}.next|))
(define-fun .def_10 () Int (! |!{M}| :next |!{M}.next|))
(define-fun .def_79 () Bool (= .def_10 |!{M}.next|))
(define-fun .def_8 () (Array Int (Array Int Int)) (! |!{a1.1}| :next |!{a1.1}.next|))
(define-fun .def_78 () Bool (= .def_8 |!{a1.1}.next|))
(define-fun .def_80 () Bool (and .def_78 .def_79))
(define-fun .def_82 () Bool (and .def_80 .def_81))
(define-fun .def_84 () Bool (and .def_82 .def_83))
(define-fun .def_134 () Bool (and .def_84 .def_133))
(define-fun .def_18 () Int (! |!{j}| :next |!{j}.next|))
(define-fun .def_95 () Bool (= .def_18 |!{j}.next|))
(define-fun .def_135 () Bool (and .def_95 .def_134))
(define-fun .def_110 () Bool (<= .def_10 .def_18))
(define-fun .def_136 () Bool (and .def_110 .def_135))
(define-fun .def_172 () Bool (and .def_136 .def_171))
(define-fun .def_103 () Bool (not |!pc[0].next|))
(define-fun .def_145 () Bool (and |!pc[1].next| .def_103))
(define-fun .def_160 () Bool (and |!pc[2].next| .def_145))
(define-fun .def_169 () Bool (and .def_160 .def_168))
(define-fun .def_126 () Int (* (- 1) |!{j}.next|))
(define-fun .def_127 () Int (+ .def_18 .def_126))
(define-fun .def_128 () Bool (= .def_127 (- 1)))
(define-fun .def_85 () Bool (= .def_16 |!{i}.next|))
(define-fun .def_86 () Bool (and .def_84 .def_85))
(define-fun .def_129 () Bool (and .def_86 .def_128))
(define-fun .def_111 () Bool (not .def_110))
(define-fun .def_130 () Bool (and .def_111 .def_129))
(define-fun .def_170 () Bool (and .def_130 .def_169))
(define-fun .def_173 () Bool (or .def_170 .def_172))
(define-fun .def_151 () Bool (and .def_35 .def_42))
(define-fun .def_159 () Bool (and .def_44 .def_151))
(define-fun .def_146 () Bool (and .def_72 .def_145))
(define-fun .def_163 () Bool (and .def_146 .def_159))
(define-fun .def_65 () Bool (= |!{i}.next| 0))
(define-fun .def_156 () Bool (and .def_65 .def_84))
(define-fun .def_157 () Bool (and .def_95 .def_156))
(define-fun .def_76 () Bool (<= .def_12 .def_16))
(define-fun .def_158 () Bool (and .def_76 .def_157))
(define-fun .def_164 () Bool (and .def_158 .def_163))
(define-fun .def_161 () Bool (and .def_159 .def_160))
(define-fun .def_87 () Bool (= |!{j}.next| 0))
(define-fun .def_88 () Bool (and .def_86 .def_87))
(define-fun .def_77 () Bool (not .def_76))
(define-fun .def_89 () Bool (and .def_77 .def_88))
(define-fun .def_162 () Bool (and .def_89 .def_161))
(define-fun .def_165 () Bool (or .def_162 .def_164))
(define-fun .def_152 () Bool (and .def_39 .def_151))
(define-fun .def_139 () Bool (and |!pc[2].next| .def_71))
(define-fun .def_153 () Bool (and .def_139 .def_152))
(define-fun .def_122 () Bool (and .def_86 .def_95))
(define-fun .def_154 () Bool (and .def_122 .def_153))
(define-fun .def_137 () Bool (and .def_35 .def_37))
(define-fun .def_138 () Bool (and .def_44 .def_137))
(define-fun .def_147 () Bool (and .def_138 .def_146))
(define-fun .def_148 () Bool (and .def_136 .def_147))
(define-fun .def_99 () Bool (and |!pc[0].next| |!pc[1].next|))
(define-fun .def_100 () Bool (and .def_72 .def_99))
(define-fun .def_142 () Bool (and .def_100 .def_138))
(define-fun .def_143 () Bool (and .def_130 .def_142))
(define-fun .def_140 () Bool (and .def_138 .def_139))
(define-fun .def_112 () (Array Int Int) (select .def_8 .def_16))
(define-fun .def_113 () Int (select .def_112 .def_18))
(define-fun .def_114 () Bool (<= .def_14 .def_113))
(define-fun .def_115 () Bool (not .def_114))
(define-fun .def_123 () Bool (and .def_115 .def_122))
(define-fun .def_124 () Bool (and .def_111 .def_123))
(define-fun .def_141 () Bool (and .def_124 .def_140))
(define-fun .def_144 () Bool (or .def_141 .def_143))
(define-fun .def_149 () Bool (or .def_144 .def_148))
(define-fun .def_104 () Bool (and .def_70 .def_103))
(define-fun .def_105 () Bool (and |!pc[2].next| .def_104))
(define-fun .def_98 () Bool (and .def_44 .def_97))
(define-fun .def_106 () Bool (and .def_98 .def_105))
(define-fun .def_90 () Bool (and .def_76 .def_78))
(define-fun .def_91 () Bool (and .def_79 .def_90))
(define-fun .def_92 () Bool (and .def_81 .def_91))
(define-fun .def_93 () Bool (and .def_83 .def_92))
(define-fun .def_94 () Bool (and .def_85 .def_93))
(define-fun .def_96 () Bool (and .def_94 .def_95))
(define-fun .def_107 () Bool (and .def_96 .def_106))
(define-fun .def_101 () Bool (and .def_98 .def_100))
(define-fun .def_102 () Bool (and .def_89 .def_101))
(define-fun .def_108 () Bool (or .def_102 .def_107))
(define-fun .def_74 () Bool (and .def_45 .def_73))
(define-fun .def_67 () Bool (= |!{j}.next| |%{j}#1|))
(define-fun .def_63 () Bool (= |!{c}.next| nd<0>))
(define-fun .def_61 () Bool (= |!{N}.next| nd_int<0>))
(define-fun .def_59 () Bool (= |!{M}.next| nd_int<0>))
(define-fun .def_58 () Bool (= |!{a1.1}.next| |%{a1.1}#1|))
(define-fun .def_60 () Bool (and .def_58 .def_59))
(define-fun .def_62 () Bool (and .def_60 .def_61))
(define-fun .def_64 () Bool (and .def_62 .def_63))
(define-fun .def_66 () Bool (and .def_64 .def_65))
(define-fun .def_68 () Bool (and .def_66 .def_67))
(define-fun .def_56 () Bool (<= nd_int<0> 0))
(define-fun .def_57 () Bool (not .def_56))
(define-fun .def_69 () Bool (and .def_57 .def_68))
(define-fun .def_75 () Bool (and .def_69 .def_74))
(define-fun .def_109 () Bool (or .def_75 .def_108))
(define-fun .def_150 () Bool (or .def_109 .def_149))
(define-fun .def_155 () Bool (or .def_150 .def_154))
(define-fun .def_166 () Bool (or .def_155 .def_165))
(define-fun .def_174 () Bool (! (or .def_166 .def_173) :trans true))
(define-fun .def_175 () Bool (! (not .def_152) :invar-property 0))
(assert true)
